(set-logic QF_SLIA)
(declare-fun var0 () String)
(assert (str.in_re var0 (re.++ ((_ re.loop 2 790) (re.++ (re.union (str.to_re "E") (re.union (str.to_re "9aY") (re.union (str.to_re "G`") (str.to_re "j")))) (re.++ (re.union (str.to_re "[4") (re.union (str.to_re "*") (re.union (str.to_re "6VL") (str.to_re "F`4")))) (re.++ (re.union (str.to_re "^") (re.union (str.to_re "J$") (re.union (str.to_re "kz") (str.to_re "m")))) (re.union (str.to_re "yS") (re.union (str.to_re "a|") (re.union (str.to_re "ZW") (str.to_re "b")))))))) (re.++ ((_ re.loop 1 434) (re.++ (re.union (str.to_re "J") (re.union (str.to_re "m") (re.union (str.to_re "\u0022") (str.to_re ",*J")))) (re.++ (re.union (str.to_re "A") (re.union (str.to_re "@") (re.union (str.to_re "vwM") (str.to_re "R0r")))) (re.++ (re.union (str.to_re "$,") (re.union (str.to_re "p") (re.union (str.to_re ":") (str.to_re "9j$")))) (re.union (str.to_re "7o") (re.union (str.to_re "Iy(") (re.union (str.to_re ".") (str.to_re "_Ka")))))))) (re.++ ((_ re.loop 6 346) (re.++ (re.union (str.to_re "4v6") (re.union (str.to_re "{") (re.union (str.to_re "H") (str.to_re "K")))) (re.++ (re.union (str.to_re "2:") (re.union (str.to_re "?[8") (re.union (str.to_re "ib") (str.to_re "Qp")))) (re.++ (re.union (str.to_re "5|") (re.union (str.to_re "4b") (re.union (str.to_re "|R") (str.to_re ";J")))) (re.union (str.to_re "-G") (re.union (str.to_re "h=") (re.union (str.to_re "VXC") (str.to_re "om")))))))) ((_ re.loop 9 416) (re.++ (re.union (str.to_re "{,Q") (re.union (str.to_re "E") (re.union (str.to_re "kfG") (str.to_re "b")))) (re.++ (re.union (str.to_re "!SI") (re.union (str.to_re "/,]") (re.union (str.to_re "t") (str.to_re "\\Hk")))) (re.++ (re.union (str.to_re "$") (re.union (str.to_re "s") (re.union (str.to_re "\u0022m") (str.to_re "$")))) (re.union (str.to_re "I") (re.union (str.to_re "{/5") (re.union (str.to_re "2`") (str.to_re "%D")))))))))))))
(assert (not (str.in_re var0 (re.++ ((_ re.loop 20 888) (re.++ (re.union (str.to_re "JY=") (re.union (str.to_re "vM") (re.union (str.to_re "=") (str.to_re "E")))) (re.++ (re.union (str.to_re "wJ*") (re.union (str.to_re "$") (re.union (str.to_re "f") (str.to_re "i(")))) (re.++ (re.union (str.to_re "Vh") (re.union (str.to_re "pN") (re.union (str.to_re "Q3") (str.to_re "5:[")))) (re.union (str.to_re "}$") (re.union (str.to_re "Y)") (re.union (str.to_re "d/)") (str.to_re "^+")))))))) (re.++ ((_ re.loop 12 38) (re.++ (re.union (str.to_re "L%)") (re.union (str.to_re "(") (re.union (str.to_re "v") (str.to_re "7<")))) (re.++ (re.union (str.to_re ":x;") (re.union (str.to_re "z") (re.union (str.to_re "b") (str.to_re ".l")))) (re.++ (re.union (str.to_re ",{q") (re.union (str.to_re "E%") (re.union (str.to_re ")") (str.to_re "mcg")))) (re.union (str.to_re "M3") (re.union (str.to_re "]9") (re.union (str.to_re "A") (str.to_re "y")))))))) (re.++ ((_ re.loop 14 179) (re.++ (re.union (str.to_re "q") (re.union (str.to_re "}gJ") (re.union (str.to_re "LUH") (str.to_re ",7")))) (re.++ (re.union (str.to_re ".p`") (re.union (str.to_re "Jw8") (re.union (str.to_re "i") (str.to_re "hZ")))) (re.++ (re.union (str.to_re "!") (re.union (str.to_re "\u0022") (re.union (str.to_re "$t") (str.to_re "=2")))) (re.union (str.to_re "4Uz") (re.union (str.to_re "~e}") (re.union (str.to_re "3") (str.to_re "z~")))))))) ((_ re.loop 8 262) (re.++ (re.union (str.to_re "c5") (re.union (str.to_re "X") (re.union (str.to_re "A") (str.to_re "4")))) (re.++ (re.union (str.to_re "P") (re.union (str.to_re "BE") (re.union (str.to_re "ag") (str.to_re "R")))) (re.++ (re.union (str.to_re "C)") (re.union (str.to_re "?X") (re.union (str.to_re "j*#") (str.to_re ")~u")))) (re.union (str.to_re "=(x") (re.union (str.to_re "_C\\") (re.union (str.to_re "N") (str.to_re "p}"))))))))))))))
(assert (not (str.in_re var0 (re.++ (re.* re.allchar) (re.++ (re.union (str.to_re "<") (re.union (str.to_re ">") (re.union (str.to_re "'") (re.union (str.to_re "\u0022") (str.to_re "&"))))) (re.* re.allchar))))))
(assert (<= 50 (str.len var0)))
(check-sat)
(get-model)
